(set-logic QF_NRA)
(set-info :source |Benchmarks generated from hycomp (https://es-static.fbk.eu/tools/hycomp/). BMC instances of non-linear hybrid automata taken from: Alessandro Cimatti, Sergio Mover, Stefano Tonetta, A quantifier-free SMT encoding of non-linear hybrid automata, FMCAD 2012 and Alessandro Cimatti, Sergio Mover, Stefano Tonetta, Quantier-free encoding of invariants for Hybrid Systems, Formal Methods in System Design. This instance solves a BMC problem of depth 1 and uses the encoding obtained with quantifier elimination using qepcad encoding. Contacts: Sergio Mover (mover@fbk.eu), Stefano Tonetta (tonettas@fbk.eu), Alessandro Cimatti (cimatti@fbk.eu).|)
(set-info :smt-lib-version 2.0)
(set-info :category "industrial")
(set-info :status unsat)
;; MathSAT API call trace
;; generated on Mon Mar 19 10:44:40 2012
(declare-fun b.x__AT1 () Real)
(declare-fun b.counter.2__AT0 () Bool)
(declare-fun b.speed_y__AT1 () Real)
(declare-fun b.event_is_timed__AT0 () Bool)
(declare-fun b.x__AT0 () Real)
(declare-fun b.time__AT1 () Real)
(declare-fun b.bool_atom__AT1 () Bool)
(declare-fun b.g__AT0 () Real)
(declare-fun b.time__AT0 () Real)
(declare-fun b.delta__AT0 () Real)
(declare-fun b.counter.3__AT0 () Bool)
(declare-fun b.speed_y__AT0 () Real)
(declare-fun b.y__AT1 () Real)
(declare-fun b.counter.0__AT1 () Bool)
(declare-fun b.counter.1__AT1 () Bool)
(declare-fun b.counter.2__AT1 () Bool)
(declare-fun b.counter.3__AT1 () Bool)
(declare-fun b.delta__AT1 () Real)
(declare-fun b.event_is_timed__AT1 () Bool)
(declare-fun b.EVENT.0__AT1 () Bool)
(declare-fun b.EVENT.1__AT1 () Bool)
(declare-fun b.y__AT0 () Real)
(declare-fun b.counter.0__AT0 () Bool)
(declare-fun b.EVENT.1__AT0 () Bool)
(declare-fun b.counter.1__AT0 () Bool)
(declare-fun b.EVENT.0__AT0 () Bool)
(declare-fun b.bool_atom__AT0 () Bool)
(assert (let ((.def_259 (* 5.0 b.delta__AT1)))
(let ((.def_260 (* b.delta__AT1 .def_259)))
(let ((.def_261 (* (- 1.0) .def_260)))
(let ((.def_257 (* b.speed_y__AT1 b.delta__AT1)))
(let ((.def_264 (+ .def_257 .def_261)))
(let ((.def_254 (* b.x__AT1 b.x__AT1)))
(let ((.def_265 (+ .def_254 .def_264)))
(let ((.def_266 (+ b.y__AT1 .def_265)))
(let ((.def_267 (<= 0.0 .def_266)))
(let ((.def_255 (+ b.y__AT1 .def_254)))
(let ((.def_256 (<= 0.0 .def_255)))
(let ((.def_268 (and .def_256 .def_267)))
(let ((.def_252 (<= 0.0 b.delta__AT1)))
(let ((.def_253 (not .def_252)))
(let ((.def_269 (or .def_253 .def_268)))
(let ((.def_235 (not b.EVENT.0__AT1)))
(let ((.def_233 (not b.EVENT.1__AT1)))
(let ((.def_249 (and .def_233 .def_235)))
(let ((.def_250 (not .def_249)))
(let ((.def_270 (or .def_250 .def_269)))
(let ((.def_28 (not b.counter.0__AT0)))
(let ((.def_244 (or b.counter.1__AT0 .def_28)))
(let ((.def_31 (not b.counter.2__AT0)))
(let ((.def_245 (or .def_31 .def_244)))
(let ((.def_246 (or b.counter.3__AT0 .def_245)))
(let ((.def_238 (* (- 1.0) b.x__AT1)))
(let ((.def_239 (* b.x__AT1 .def_238)))
(let ((.def_240 (<= .def_239 b.y__AT1)))
(let ((.def_58 (<= b.g__AT0 10.0 )))
(let ((.def_57 (<= 8.0 b.g__AT0)))
(let ((.def_59 (and .def_57 .def_58)))
(let ((.def_241 (and .def_59 .def_240)))
(let ((.def_236 (or .def_233 .def_235)))
(let ((.def_142 (not b.counter.1__AT1)))
(let ((.def_4 (not b.counter.0__AT1)))
(let ((.def_226 (or .def_4 .def_142)))
(let ((.def_230 (or b.counter.3__AT1 .def_226)))
(let ((.def_227 (or b.counter.2__AT1 .def_226)))
(let ((.def_8 (not b.counter.2__AT1)))
(let ((.def_225 (or .def_4 .def_8)))
(let ((.def_228 (and .def_225 .def_227)))
(let ((.def_159 (not b.counter.3__AT1)))
(let ((.def_229 (or .def_159 .def_228)))
(let ((.def_231 (and .def_229 .def_230)))
(let ((.def_237 (and .def_231 .def_236)))
(let ((.def_242 (and .def_237 .def_241)))
(let ((.def_67 (<= 0.0 b.delta__AT0)))
(let ((.def_47 (not b.EVENT.0__AT0)))
(let ((.def_45 (not b.EVENT.1__AT0)))
(let ((.def_64 (and .def_45 .def_47)))
(let ((.def_65 (not .def_64)))
(let ((.def_221 (or .def_65 .def_67)))
(let ((.def_222 (or b.EVENT.1__AT0 .def_221)))
(let ((.def_125 (= b.bool_atom__AT0 b.bool_atom__AT1)))
(let ((.def_120 (= b.counter.0__AT1 b.counter.0__AT0)))
(let ((.def_118 (= b.counter.1__AT1 b.counter.1__AT0)))
(let ((.def_116 (= b.counter.2__AT1 b.counter.2__AT0)))
(let ((.def_115 (= b.counter.3__AT1 b.counter.3__AT0)))
(let ((.def_117 (and .def_115 .def_116)))
(let ((.def_119 (and .def_117 .def_118)))
(let ((.def_121 (and .def_119 .def_120)))
(let ((.def_217 (and .def_121 .def_125)))
(let ((.def_218 (or .def_65 .def_217)))
(let ((.def_219 (or b.EVENT.1__AT0 .def_218)))
(let ((.def_191 (* (- 1.0) b.g__AT0)))
(let ((.def_206 (* b.delta__AT0 .def_191)))
(let ((.def_207 (* (- 1.0) b.speed_y__AT1)))
(let ((.def_210 (+ .def_207 .def_206)))
(let ((.def_211 (+ b.speed_y__AT0 .def_210)))
(let ((.def_212 (= .def_211 0.0 )))
(let ((.def_195 (* b.delta__AT0 b.delta__AT0)))
(let ((.def_194 (* (/ 1 2) .def_191)))
(let ((.def_196 (* .def_194 .def_195)))
(let ((.def_198 (* (- 1.0) b.y__AT1)))
(let ((.def_201 (+ .def_198 .def_196)))
(let ((.def_73 (* b.delta__AT0 b.speed_y__AT0)))
(let ((.def_202 (+ .def_73 .def_201)))
(let ((.def_203 (+ b.y__AT0 .def_202)))
(let ((.def_204 (= .def_203 0.0 )))
(let ((.def_107 (= b.x__AT0 b.x__AT1)))
(let ((.def_205 (and .def_107 .def_204)))
(let ((.def_213 (and .def_205 .def_212)))
(let ((.def_214 (or .def_65 .def_213)))
(let ((.def_110 (= b.y__AT0 b.y__AT1)))
(let ((.def_186 (and .def_107 .def_110)))
(let ((.def_113 (= b.speed_y__AT0 b.speed_y__AT1)))
(let ((.def_187 (and .def_113 .def_186)))
(let ((.def_183 (= b.delta__AT0 0.0 )))
(let ((.def_184 (and .def_64 .def_183)))
(let ((.def_185 (not .def_184)))
(let ((.def_188 (or .def_185 .def_187)))
(let ((.def_189 (or b.EVENT.1__AT0 .def_188)))
(let ((.def_176 (and .def_113 .def_121)))
(let ((.def_177 (or b.bool_atom__AT0 .def_176)))
(let ((.def_151 (or .def_4 b.counter.0__AT0)))
(let ((.def_150 (or b.counter.0__AT1 .def_28)))
(let ((.def_152 (and .def_150 .def_151)))
(let ((.def_153 (and .def_142 .def_152)))
(let ((.def_154 (or b.counter.1__AT0 .def_153)))
(let ((.def_26 (not b.counter.1__AT0)))
(let ((.def_149 (or b.counter.1__AT1 .def_26)))
(let ((.def_155 (and .def_149 .def_154)))
(let ((.def_167 (and .def_8 .def_155)))
(let ((.def_168 (or b.counter.2__AT0 .def_167)))
(let ((.def_162 (and .def_28 .def_142)))
(let ((.def_163 (or b.counter.1__AT0 .def_162)))
(let ((.def_164 (and .def_149 .def_163)))
(let ((.def_165 (and b.counter.2__AT1 .def_164)))
(let ((.def_166 (or .def_31 .def_165)))
(let ((.def_169 (and .def_166 .def_168)))
(let ((.def_170 (and b.counter.3__AT1 .def_169)))
(let ((.def_171 (or b.counter.3__AT0 .def_170)))
(let ((.def_156 (and b.counter.2__AT1 .def_155)))
(let ((.def_157 (or b.counter.2__AT0 .def_156)))
(let ((.def_145 (or b.counter.1__AT1 b.counter.1__AT0)))
(let ((.def_143 (and b.counter.0__AT1 .def_142)))
(let ((.def_144 (or .def_26 .def_143)))
(let ((.def_146 (and .def_144 .def_145)))
(let ((.def_147 (and .def_8 .def_146)))
(let ((.def_148 (or .def_31 .def_147)))
(let ((.def_158 (and .def_148 .def_157)))
(let ((.def_160 (and .def_158 .def_159)))
(let ((.def_34 (not b.counter.3__AT0)))
(let ((.def_161 (or .def_34 .def_160)))
(let ((.def_172 (and .def_161 .def_171)))
(let ((.def_139 (* b.speed_y__AT0 b.speed_y__AT0)))
(let ((.def_138 (* b.speed_y__AT1 b.speed_y__AT1)))
(let ((.def_140 (= .def_138 .def_139)))
(let ((.def_136 (+ b.speed_y__AT0 b.speed_y__AT1)))
(let ((.def_137 (= .def_136 0.0 )))
(let ((.def_141 (and .def_137 .def_140)))
(let ((.def_173 (and .def_141 .def_172)))
(let ((.def_135 (not b.bool_atom__AT0)))
(let ((.def_174 (or .def_135 .def_173)))
(let ((.def_131 (<= 0.0 b.speed_y__AT0)))
(let ((.def_132 (not .def_131)))
(let ((.def_52 (* (- 1.0) b.x__AT0)))
(let ((.def_53 (* b.x__AT0 .def_52)))
(let ((.def_130 (= b.y__AT0 .def_53)))
(let ((.def_133 (and .def_130 .def_132)))
(let ((.def_134 (= b.bool_atom__AT0 .def_133)))
(let ((.def_175 (and .def_134 .def_174)))
(let ((.def_178 (and .def_175 .def_177)))
(let ((.def_179 (and .def_107 .def_178)))
(let ((.def_180 (and .def_110 .def_179)))
(let ((.def_181 (or .def_64 .def_180)))
(let ((.def_182 (or b.EVENT.1__AT0 .def_181)))
(let ((.def_190 (and .def_182 .def_189)))
(let ((.def_215 (and .def_190 .def_214)))
(let ((.def_94 (= b.time__AT0 b.time__AT1)))
(let ((.def_108 (and .def_94 .def_107)))
(let ((.def_111 (and .def_108 .def_110)))
(let ((.def_114 (and .def_111 .def_113)))
(let ((.def_122 (and .def_114 .def_121)))
(let ((.def_126 (and .def_122 .def_125)))
(let ((.def_127 (or .def_45 .def_126)))
(let ((.def_97 (* (- 1.0) b.time__AT1)))
(let ((.def_100 (+ b.delta__AT0 .def_97)))
(let ((.def_101 (+ b.time__AT0 .def_100)))
(let ((.def_102 (= .def_101 0.0 )))
(let ((.def_103 (or .def_65 .def_102)))
(let ((.def_104 (or b.EVENT.1__AT0 .def_103)))
(let ((.def_95 (or .def_64 .def_94)))
(let ((.def_96 (or b.EVENT.1__AT0 .def_95)))
(let ((.def_105 (and .def_96 .def_104)))
(let ((.def_128 (and .def_105 .def_127)))
(let ((.def_91 (= .def_65 b.event_is_timed__AT1)))
(let ((.def_89 (= b.event_is_timed__AT0 .def_64)))
(let ((.def_92 (and .def_89 .def_91)))
(let ((.def_129 (and .def_92 .def_128)))
(let ((.def_216 (and .def_129 .def_215)))
(let ((.def_220 (and .def_216 .def_219)))
(let ((.def_223 (and .def_220 .def_222)))
(let ((.def_224 (and .def_45 .def_223)))
(let ((.def_243 (and .def_224 .def_242)))
(let ((.def_247 (and .def_243 .def_246)))
(let ((.def_76 (* 5.0 b.delta__AT0)))
(let ((.def_77 (* b.delta__AT0 .def_76)))
(let ((.def_78 (* (- 1.0) .def_77)))
(let ((.def_81 (+ .def_73 .def_78)))
(let ((.def_69 (* b.x__AT0 b.x__AT0)))
(let ((.def_82 (+ .def_69 .def_81)))
(let ((.def_83 (+ b.y__AT0 .def_82)))
(let ((.def_84 (<= 0.0 .def_83)))
(let ((.def_70 (+ b.y__AT0 .def_69)))
(let ((.def_71 (<= 0.0 .def_70)))
(let ((.def_85 (and .def_71 .def_84)))
(let ((.def_68 (not .def_67)))
(let ((.def_86 (or .def_68 .def_85)))
(let ((.def_87 (or .def_65 .def_86)))
(let ((.def_54 (<= .def_53 b.y__AT0)))
(let ((.def_60 (and .def_54 .def_59)))
(let ((.def_48 (or .def_45 .def_47)))
(let ((.def_38 (or .def_26 .def_28)))
(let ((.def_42 (or b.counter.3__AT0 .def_38)))
(let ((.def_39 (or b.counter.2__AT0 .def_38)))
(let ((.def_37 (or .def_28 .def_31)))
(let ((.def_40 (and .def_37 .def_39)))
(let ((.def_41 (or .def_34 .def_40)))
(let ((.def_43 (and .def_41 .def_42)))
(let ((.def_49 (and .def_43 .def_48)))
(let ((.def_61 (and .def_49 .def_60)))
(let ((.def_29 (and .def_26 .def_28)))
(let ((.def_32 (and .def_29 .def_31)))
(let ((.def_35 (and .def_32 .def_34)))
(let ((.def_23 (= b.y__AT0 10.0 )))
(let ((.def_19 (= b.x__AT0 0.0 )))
(let ((.def_15 (= b.time__AT0 0.0 )))
(let ((.def_17 (and .def_15 b.event_is_timed__AT0)))
(let ((.def_20 (and .def_17 .def_19)))
(let ((.def_24 (and .def_20 .def_23)))
(let ((.def_36 (and .def_24 .def_35)))
(let ((.def_62 (and .def_36 .def_61)))
(let ((.def_6 (or .def_4 b.counter.1__AT1)))
(let ((.def_9 (or .def_6 .def_8)))
(let ((.def_11 (or .def_9 b.counter.3__AT1)))
(let ((.def_12 (not .def_11)))
(let ((.def_63 (and .def_12 .def_62)))
(let ((.def_88 (and .def_63 .def_87)))
(let ((.def_248 (and .def_88 .def_247)))
(let ((.def_271 (and .def_248 .def_270)))
.def_271))))))))))))))))))))))))))))))))))))))))))))))))))))))))))))))))))))))))))))))))))))))))))))))))))))))))))))))))))))))))))))))))))))))))))))))))))))))))))))))))))))))))))))))))))))))))))))))))))))))))))))))))))))))))))))))
(check-sat)
(exit)
